211 5
10 10 10 10 10 

0 0 0 0 0 0 1 2 
0 0 0 0 0 0 4 3 4 5 6 
4 0 0 1 0 0 2 9 7 
3 0 0 7 0 0 2 11 10 
6 0 0 9 0 0 2 11 10 
10 0 0 4 0 0 2 11 10 
8 0 0 4 0 0 1 8 
3 0 0 4 0 0 1 10 
2 0 0 4 0 0 1 11 
8 0 0 3 0 0 1 12 
8 0 0 7 0 0 1 12 
8 0 0 7 0 0 1 13 
0 0 0 0 0 0 2 14 26 
0 0 0 0 0 0 1 15 
4 0 0 1 0 0 3 21 17 16 
10 0 0 9 0 0 2 19 18 
2 0 0 4 0 0 2 19 18 
10 0 0 7 0 0 3 24 23 22 
1 0 0 6 0 0 1 20 
8 0 0 2 0 0 1 22 
10 0 0 4 0 0 1 22 
10 0 0 7 0 0 1 25 
9 0 0 7 0 0 1 25 
2 0 0 3 0 0 1 25 
0 0 0 0 0 0 2 48 60 
0 0 0 0 0 0 6 27 42 43 44 45 46 
3 1 0 0 1 0 3 41 40 28 
9 6 0 0 6 0 2 39 29 
2 7 0 0 1 0 3 38 37 30 
5 2 0 0 8 0 1 31 
9 9 0 0 6 0 1 32 
1 5 0 0 2 0 1 33 
10 6 0 0 4 0 1 34 
7 8 0 0 3 0 1 35 
2 4 0 0 4 0 1 36 
3 5 0 0 7 0 1 47 
4 5 0 0 4 0 1 47 
3 6 0 0 8 0 1 47 
2 4 0 0 2 0 1 47 
3 4 0 0 6 0 1 47 
10 6 0 0 5 0 1 47 
7 6 0 0 7 0 1 47 
10 6 0 0 4 0 1 47 
5 4 0 0 5 0 1 47 
1 2 0 0 7 0 1 47 
3 4 0 0 10 0 1 47 
0 0 0 0 0 0 1 72 
0 0 0 0 0 0 2 49 51 
6 0 0 0 1 0 1 50 
8 0 0 0 5 0 2 54 52 
1 0 0 0 5 0 3 55 54 53 
3 0 0 0 4 0 2 58 53 
2 0 0 0 4 0 1 56 
7 0 0 0 7 0 1 57 
1 0 0 0 6 0 1 56 
2 0 0 0 6 0 1 59 
7 0 0 0 5 0 1 59 
4 0 0 0 7 0 1 59 
0 0 0 0 0 0 1 72 
0 0 0 0 0 0 4 61 62 65 70 
7 0 0 0 1 0 2 69 63 
9 0 0 0 5 0 3 69 68 66 
6 0 0 0 7 0 1 64 
8 0 0 0 5 0 2 68 66 
6 0 0 0 5 0 1 66 
9 0 0 0 2 0 1 67 
7 0 0 0 4 0 1 71 
7 0 0 0 8 0 1 71 
7 0 0 0 4 0 1 71 
1 0 0 0 9 0 1 71 
0 0 0 0 0 0 1 72 
0 0 0 0 0 0 4 73 95 107 129 
0 0 0 0 0 0 1 74 
9 0 0 1 1 0 2 80 75 
5 0 0 10 4 0 2 78 76 
9 0 0 2 4 0 1 77 
8 0 0 4 5 0 2 88 79 
10 0 0 4 5 0 2 88 79 
7 0 0 6 8 0 4 86 84 83 81 
6 0 0 3 5 0 3 93 86 85 
10 0 0 6 7 0 1 82 
3 0 0 5 10 0 2 92 85 
2 0 0 7 6 0 2 92 85 
2 0 0 2 6 0 2 92 85 
1 0 0 8 3 0 2 91 87 
8 0 0 8 4 0 2 91 87 
7 0 0 7 4 0 2 90 89 
5 0 0 5 4 0 1 93 
4 0 0 6 4 0 1 94 
5 0 0 3 5 0 1 94 
3 0 0 5 6 0 1 94 
9 0 0 3 5 0 1 94 
4 0 0 5 4 0 1 94 
0 0 0 0 0 0 1 211 
0 0 0 0 0 0 4 96 98 102 105 
6 0 0 1 0 0 2 101 97 
2 0 0 6 0 0 2 103 99 
1 0 0 7 0 0 2 103 100 
4 0 0 5 0 0 1 100 
5 0 0 5 0 0 1 104 
7 0 0 5 0 0 1 103 
5 0 0 4 0 0 1 103 
8 0 0 5 0 0 1 106 
2 0 0 6 0 0 1 106 
3 0 0 6 0 0 1 106 
0 0 0 0 0 0 5 151 163 175 187 199 
0 0 0 0 0 0 1 108 
8 1 0 0 0 1 2 111 109 
7 6 0 0 0 5 1 110 
1 4 0 0 0 4 1 112 
2 5 0 0 0 5 1 112 
5 8 0 0 0 4 2 115 113 
5 4 0 0 0 6 4 127 121 120 114 
8 5 0 0 0 9 3 126 118 116 
10 6 0 0 0 4 5 126 125 124 120 119 
2 7 0 0 0 8 2 123 117 
6 7 0 0 0 5 2 124 119 
2 3 0 0 0 4 2 125 122 
4 5 0 0 0 4 1 122 
10 4 0 0 0 4 1 123 
7 7 0 0 0 3 1 122 
8 9 0 0 0 7 1 128 
1 4 0 0 0 7 1 128 
6 3 0 0 0 6 1 128 
2 4 0 0 0 3 1 128 
5 4 0 0 0 5 1 128 
1 4 0 0 0 6 1 128 
0 0 0 0 0 0 1 211 
0 0 0 0 0 0 1 130 
7 1 1 0 0 0 2 136 131 
2 6 7 0 0 0 1 132 
5 7 6 0 0 0 4 149 148 146 133 
3 4 6 0 0 0 2 147 134 
5 7 5 0 0 0 2 143 135 
9 4 5 0 0 0 4 145 144 141 137 
5 5 8 0 0 0 4 146 143 141 138 
2 10 5 0 0 0 2 142 138 
2 2 5 0 0 0 1 139 
3 3 6 0 0 0 1 140 
10 5 3 0 0 0 1 150 
10 9 5 0 0 0 1 150 
5 6 3 0 0 0 1 150 
6 5 3 0 0 0 1 150 
3 3 7 0 0 0 1 150 
2 2 7 0 0 0 1 150 
5 5 5 0 0 0 1 150 
3 4 4 0 0 0 1 150 
1 6 6 0 0 0 1 150 
4 6 3 0 0 0 1 150 
0 0 0 0 0 0 1 211 
0 0 0 0 0 0 4 152 153 157 161 
4 1 0 0 0 0 3 160 159 154 
1 3 0 0 0 0 2 159 156 
2 6 0 0 0 0 1 155 
8 5 0 0 0 0 1 156 
5 9 0 0 0 0 1 158 
6 2 0 0 0 0 1 158 
10 8 0 0 0 0 1 162 
5 4 0 0 0 0 1 162 
6 6 0 0 0 0 1 162 
5 6 0 0 0 0 1 162 
0 0 0 0 0 0 1 211 
0 0 0 0 0 0 1 164 
1 0 1 0 0 0 2 166 165 
2 0 8 0 0 0 2 168 167 
5 0 3 0 0 0 2 170 168 
10 0 5 0 0 0 3 173 170 169 
4 0 5 0 0 0 2 173 169 
7 0 7 0 0 0 2 172 171 
8 0 7 0 0 0 2 172 171 
8 0 5 0 0 0 1 174 
1 0 5 0 0 0 1 174 
3 0 4 0 0 0 1 174 
0 0 0 0 0 0 1 211 
0 0 0 0 0 0 4 176 179 184 185 
2 0 2 0 0 0 2 181 177 
6 0 4 0 0 0 1 178 
4 0 7 0 0 0 1 180 
2 0 3 0 0 0 1 180 
6 0 4 0 0 0 1 182 
8 0 2 0 0 0 1 183 
2 0 10 0 0 0 1 186 
3 0 3 0 0 0 1 186 
2 0 6 0 0 0 1 186 
1 0 9 0 0 0 1 186 
0 0 0 0 0 0 1 211 
0 0 0 0 0 0 5 188 190 194 195 197 
2 0 1 0 0 0 2 193 189 
3 0 8 0 0 0 1 191 
10 0 5 0 0 0 1 191 
6 0 5 0 0 0 1 192 
2 0 2 0 0 0 1 196 
7 0 5 0 0 0 1 196 
3 0 9 0 0 0 1 196 
6 0 5 0 0 0 1 196 
3 0 7 0 0 0 1 198 
8 0 3 0 0 0 1 198 
0 0 0 0 0 0 1 211 
0 0 0 0 0 0 1 200 
1 0 1 0 0 0 3 205 203 201 
8 0 7 0 0 0 3 209 207 202 
10 0 4 0 0 0 2 208 204 
5 0 7 0 0 0 2 207 206 
2 0 5 0 0 0 1 206 
9 0 7 0 0 0 1 207 
10 0 5 0 0 0 1 210 
7 0 8 0 0 0 1 210 
9 0 4 0 0 0 1 210 
2 0 2 0 0 0 1 210 
0 0 0 0 0 0 1 211 
0 0 0 0 0 0 0 
